;  depth   = 3
;  nconst  = 6
;  assertions = 5
;  timeout = 2500
;  time    = {'smt_solvers/QF_S/z3str3fed/': 0.0718080997467041, 'smt_solvers/QF_S/z3str3/': 0.0927133560180664, 'smt_solvers/QF_S/z3seq/': 0.08685708045959473, 'smt_solvers/QF_S/cvc4/': 0.19835329055786133}
;  score   = 0.10563993453979492
;  stdout  = {'smt_solvers/QF_S/z3str3fed/': 'unsat', 'smt_solvers/QF_S/z3str3/': 'unsat', 'smt_solvers/QF_S/z3seq/': 'unsat', 'smt_solvers/QF_S/cvc4/': 'unsat'}
(set-logic ALL)(declare-fun var0 () String)(declare-fun var1 () String)(declare-fun var2 () String)(declare-fun var3 () String)(declare-fun var4 () String)(declare-fun var5 () String)(declare-fun var6 () Int)(declare-fun var7 () Int)(declare-fun var8 () Int)(declare-fun var9 () Int)(declare-fun var10 () Int)(declare-fun var11 () Int)(declare-fun var12 () Bool)(declare-fun var13 () Bool)(declare-fun var14 () Bool)(declare-fun var15 () Bool)(declare-fun var16 () Bool)(declare-fun var17 () Bool)(assert (not (not var17)))(assert (> (str.indexof (str.at var5 var8) (str.at var0 0) (str.len var3)) (str.len var3)))(assert (> (str.to_int var0) (str.indexof "Z/b\\R!1J@^" var5 var6)))(assert (str.in_re (str.substr (str.at var1 var6) (str.indexof "1kSBjri+l?" var1 var6) (str.len var4)) (re.* (re.* re.allchar))))(assert (<= (str.indexof (str.at var1 var9) (str.replace var1 "P{BO/7*N$C" var0) (str.len var0)) (str.indexof var2 var4 var8)))(check-sat)